<?xml version = "1.0" standalone="yes"?>
<!-- This file has been generated by DOcplex version 2.23.222  -->
<CPLEXSolution version="1.0">
 <header
   problemName="CVRP"
   objectiveValue="13537.2"
  />
 <variables>
  <variable name="x_0_1" index="0" value="1.00000"/>
  <variable name="x_0_3" index="2" value="1.00000"/>
  <variable name="x_0_4" index="3" value="1.00000"/>
  <variable name="x_0_7" index="6" value="1.00000"/>
  <variable name="x_0_8" index="7" value="1.00000"/>
  <variable name="x_0_10" index="9" value="1.00000"/>
  <variable name="x_0_11" index="10" value="1.00000"/>
  <variable name="x_0_12" index="11" value="1.00000"/>
  <variable name="x_0_13" index="12" value="1.00000"/>
  <variable name="x_1_0" index="16" value="1.00000"/>
  <variable name="x_2_9" index="40" value="1.00000"/>
  <variable name="x_3_5" index="52" value="1.00000"/>
  <variable name="x_4_0" index="64" value="1.00000"/>
  <variable name="x_5_0" index="80" value="1.00000"/>
  <variable name="x_6_16" index="111" value="1.00000"/>
  <variable name="x_7_0" index="112" value="1.00000"/>
  <variable name="x_8_0" index="128" value="1.00000"/>
  <variable name="x_9_0" index="144" value="1.00000"/>
  <variable name="x_10_6" index="166" value="1.00000"/>
  <variable name="x_11_2" index="178" value="1.00000"/>
  <variable name="x_12_14" index="205" value="1.00000"/>
  <variable name="x_13_15" index="222" value="1.00000"/>
  <variable name="x_14_0" index="224" value="1.00000"/>
  <variable name="x_15_0" index="240" value="1.00000"/>
  <variable name="x_16_0" index="256" value="1.00000"/>
  <variable name="u_1" index="272" value="21.00000"/>
  <variable name="u_2" index="273" value="30.00000"/>
  <variable name="u_3" index="274" value="6.00000"/>
  <variable name="u_4" index="275" value="28.00000"/>
  <variable name="u_5" index="276" value="34.00000"/>
  <variable name="u_6" index="277" value="21.00000"/>
  <variable name="u_7" index="278" value="34.00000"/>
  <variable name="u_8" index="279" value="34.00000"/>
  <variable name="u_9" index="280" value="34.00000"/>
  <variable name="u_10" index="281" value="4.00000"/>
  <variable name="u_11" index="282" value="29.00000"/>
  <variable name="u_12" index="283" value="21.00000"/>
  <variable name="u_13" index="284" value="2.00000"/>
  <variable name="u_14" index="285" value="34.00000"/>
  <variable name="u_15" index="286" value="25.00000"/>
  <variable name="u_16" index="287" value="34.00000"/>
 </variables>
</CPLEXSolution>
